(set-info :smt-lib-version 2.6)
(set-logic QF_S)
(set-info :source |
Generated by: Shaoke Cui
Generated on: 2025-04-10
Application: Using String Solvers to solve string matching problems
Target solver: cvc5, OSTRICH, Z3, Z3alpha, Z3-noodler
Benchmarks for substring matching problem, which needs to determine whether the pattern string exists in the text string.
|)
(set-info :license "https://creativecommons.org/licenses/by/4.0/")
(set-info :category "crafted")
(set-info :status sat)
(declare-fun a1() String)
(declare-fun a2() String)
(declare-fun a3() String)
(declare-fun a4() String)
(declare-fun a5() String)
(declare-fun a6() String)
(declare-fun a7() String)
(declare-fun a8() String)
(declare-fun a9() String)
(declare-fun a10() String)
(declare-fun a11() String)
(declare-fun a12() String)
(declare-fun a13() String)
(declare-fun a14() String)
(declare-fun a15() String)
(declare-fun a16() String)
(declare-fun a17() String)
(declare-fun a18() String)
(declare-fun a19() String)
(declare-fun a20() String)
(declare-fun a21() String)
(declare-fun a22() String)
(declare-fun a23() String)
(declare-fun a24() String)
(assert (= a1 "444444444444444444444444444444444444444444444444444444444444444444444444444444444444444444444444444444444444444444444444444444444444444444"))
(assert (= a2 "444444444444444444444444444444444444444444444444444444444444444444444444444444444444444444444444444444444444444444444444444444444444444444"))
(assert (= a3 "444444444444444444444444444444444444444444444444444444444444444444444444444444444444444444444444444444444444444444444444444444444444444444"))
(assert (= a4 "444444444444444444444444444444444444444444444444444444444444444444444444444444444444444444444444444444444444444444444444444444444444444444"))
(assert (= a5 "444444444444444444444444444444444444444444444444444444444444444444444444444444444444444444444444444444444444444444444444444444444444444444"))
(assert (= a6 "444444444444444444444444444444444444444444444444444444444444444444444444444444444444444444444444444444444444444444444444444444444444444444"))
(assert (= a7 "444444444444444444444444444444444444444444444444444444444444444444444444444444444444444444444444444444444444444444444444444444444444444444"))
(assert (= a8 "444444444444444444444444444444444444444444444444444444444444444444444444444444444444444444444444444444444444444444444444444444444444444444"))
(assert (= a9 "444444444444444444444444444444444444444444444444444444444444444444444444444444444444444444444444444444444444444444444444444444444444444444"))
(assert (= a10 "444444444444444444444444444444444444444444444444444444444444444444444444444444444444444444444444444444444444444444444444444444444444444444"))
(assert (= a11 "444444444444444444444444444444444444444444444444444444444444444444444444444444444444444444444444444444444444444444444444444444444444444444"))
(assert (= a12 "444444444444444444444444444444444444444444444444444444444444444444444444444444444444444444444444444444444444444444444444444444444444444444"))
(assert (= a13 "444444444444444444444444444444444444444444444444444444444444444444444444444444444444444444444444444444444444444444444444444444444444444"))
(assert (= a14 "444444444444444444444444444444444444444444444444444444444444444444444444444444444444444444444444444444444444444444444444444444444444444"))
(assert (= a15 "444444444444444444444444444444444444444444444444444444444444444444444444444444444444444444444444444444444444444444444444444444444444444"))
(assert (= a16 "444444444444444444444444444444444444444444444444444444444444444444444444444444444444444444444444444444444444444444444444444444444444444"))
(assert (= a17 "444444444444444444444444444444444444444444444444444444444444444444444444444444444444444444444444444444444444444444444444444444444444444"))
(assert (= a18 "444444444444444444444444444444444444444444444444444444444444444444444444444444444444444444444444444444444444444444444444444444444444444"))
(assert (= a19 "444444444444444444444444444444444444444444444444444444444444444444444444444444444444444444444444444444444444444444444444444444444444444"))
(assert (= a20 "444444444444444444444444444444444444444444444444444444444444444444444444444444444444444444444444444444444444444444444444444444444444444"))
(assert (= a21 "444444444444444444444444444444444444444444444444444444444444444444444444444444444444444444444444444444444444444444444444444444444444444"))
(assert (= a22 "444444444444444444444444444444444444444444444444444444444444444444444444444444444444444444444444444444444444444444444444444444444444444"))
(assert (= a23 "444444444444444444444444444444444444444444444444444444444444444444444444444444444444444444444444444444444444444444444444444444444444444"))
(assert (= a24 "444444444444444444444444444444444444444444444444444444444444444444444444444444444444444444444444444444444444444444444444444444444444444"))
(assert (str.contains (str.++ a12 a3 a5 a9 a4 a2 a8 a3 a1 a6 a3 a7 a6 a12 a7 a12 a8 a3 a5 a11 a12 a3 a9 a9 a11 a9 a3 a7 a8 a2 a11 a1 a10 a5 a9 a5 a5 a10 a10 a10 a9 a9 a11 a7 a3 a11 a7 a5 a3 a7 a5 a2 a6 a5 a1 a7 a7 a11 a10 a11 a10 a7 a2 a3 a1 a11 a6 a8 a10 a5 a5 a12 a11 a3 a8 a11 a3 a9 a4 a4 a1 a6 a2 a2 a7 a8 a3 a11 a7 a4 a8 a6 a4 a1 a8 a9 a5 a8 a1 a10 a3 a5 a7 a8 a1 a6 a2 a5 a11 a6 a4 a3 a2 a1 a11 a10 a10 a9 a10 a3 a3 a1 a3 a8 a5 a7 a4 a4 a10 a2 a1 a6 a4 a8 a7 a7 a11 a5 a11 a7 a3 a3 a11 a3 a4 a5 a2 a2 a7 a5 a12 a8 a5 a9 a10 a7 a1 a6 a4 a8 a4 a4 a3 a8 a11 a4 a4 a1 a5 a12 a10 a12 a11 a9 a8 a7 a12 a3 a7 a4 a6 a6 a11 a1 a2 a4 a9 a6 a8 a5 a12 a5 a4 a5 a6 a11 a12 a9 a8 a12 a6 a8 a7 a2 a3 a4 a9 a5 a1 a4 a7 a6 a12 a9 a6 a6 a9 a11 a8 a11 a12 a4 a10 a12 a5 a2 a1 a5 a6 a5 a12 a8 a8 a8 a9 a2 a9 a11 a9 a3 a2 a1 a6 a7 a1 a10 a11 a8 a6 a1 a5 a12 a1 a9 a5 a2 a7 a7 a10 a4 a4 a2 a1 a10 a12 a7 a12 a6 a4 a8 a5 a3 a12 a2 a11 a8 a5 a12 a8 a12 a1 a6 a3 a11 a6 a5 a11 a1 a9 a8 a1 a4 a2 a4 a2 a11 a5 a1 a4 a5 a5 a8 a12 a2 a2 a9 a3 a8 a10 a6 a9 a4 a6 a9 a3 a8 a5 a12 a6 a2 a8 a5 a11 a9 a8 a10 a8 a12 a4 a5 a9 a4 a3 a11 a8 a3 a1 a9 a6 a5 a10 a7 a7 a6 a10 a6 a7 a6 a4 a11 a7 a3 a8 a1 a5 a11 a8 a9 a1 a5 a9 a6 a5 a9 a9 a4 a10 a6 a3 a2 a10 a12 a7 a8 a1 a1 a8 a6 a5 a2 a8 a5 a1 a11 a8 a5 a11 a4 a2 a10 a2 a2 a7 a11 a9 a6 a1 a1 a3 a3 a10 a8 a1 a3 a10 a5 a10 a2 a8 a12 a2 a9 a4 a3 a3 a4 a11 a4 a1 a11 a7 a1 a7 a10 a5 a1 a2 a9 a7 a7 a11 a4 a11 a1 a6 a9 a2 a5 a2 a11 a2 a1 a3 a6 a12 a3 a11 a7 a4 a2 a6 a1 a8 a2 a12 a3 a2 a6 a8 a10 a8 a9 a12 a3 a2 a1 a9 a8 a1 a1 a2 a8 a10 a2 a7 a7 a10 a8 a9 a9 a6 a2 a10 a12 a3 a4 a2 a3 a12 a8 a5 a4 a8 a4 a10 a4 a3 a1 a11 a2 a7 a7 a12 a3 a3 a9 a9 a10 a9 a11 a8 a12 a6 a1 a10 a4 a1 a7 a8 a4 a2 a1 a4 a3 a8 a3 a11 a4 a10 a3 a9 a10 a12 a2 a4 a5 a12 a6 a9 a2 a12 a1 a4 a6 a8 a2 a12 a4 a10 a7 a4 a2 a5 a3 a6 a6 a7 a12 a12 a9 a4 a10 a12 a9 a7 a1 a10 a4 a7 a2 a7 a12 a9 a12 a4 a11 a1 a4 a9 a12 a2 a1 a2 a9 a4 a7 a7 a6 a1 a7 a4 a10 a11 a2 a2 a3 a1 a4 a4 a10 a9 a10 a3 a4 a3 a2 a12 a4 a2 a6 a8 a8 a9 a4 a6 a5 a2 a9 a10 a11 a4 a10 a9 a2 a1 a2 a11 a11 a8 a1 a8 a4 a3 a8 a4 a7 a12 a12 a10 a5 a7 a5 a6 a10 a11 a9 a5 a9 a6 a5 a6 a2 a5 a1 a6 a8 a8 a5 a7 a9 a2 a10 a1 a6 a4 a3 a12 a4 a4 a2 a2 a10 a9 a7 a1 a12 a9 a2 a11 a10 a11 a11 a10 a12 a7 a5 a1 a4 a10 a7 a1 a8 a6 a11 a1 a4 a9 a11 a11 a3 a11 a3 a1 a2 a2 a9 a8 a3 a6 a10 a9 a6 a11 a10 a8 a4 a4 a6 a9 a10 a12 a7 a9 a10 a10 a1 a12 a3 a5 a1 a5 a6 a9 a11 a1 a11 a11 a5 a5 a9 a7 a3 a12 a10 a11 a10 a7 a12 a1 a10 a7 a11 a6 a1 a10 a1 a11 a4 a8 a5 a4 a11 a7 a9 a12 a7 a11 a11 a11 a11 a12 a6 a10 a1 a12 a4 a3 a6 a9 a8 a7 a6 a2 a7 a4 a5 a10 a7 a2 a11 a2 a10 a3 a11 a7 a5 a9 a4 a1 a10 a11 a6 a6 a12 a1 a11 a11 a2 a10 a9 a11 a7 a10 a12 a12 a4 a6 a6 a8 a12 a10 a6 a1 a9 a8 a11 a9 a4 a6 a7 a10 a2 a2 a11 a11 a4 a7 a4 a10 a5 a10 a10 a6 a12 a3 a6 a11 a10 a11 a3 a6 a9 a11 a12 a2 a11 a1 a8 a3 a11 a6 a2 a8 a7 a10 a7 a7 a10 a10 a6 a6 a1 a11 a2 a5 a11 a11 a7 a12 a9 a6 a2 a6 a4 a9 a8 a1 a5 a12 a2 a5 a1 a9 a4 a9 a2 a2 a1 a9 a4 a11 a4 a2 a9 a2 a12 a1 a4 a6 a1 a6 a2 a3 a3 a7 a11 a1 a4 a3 a2 a12 a4 a5 a8 a2 a3 a12 a3 a4 a7 a7 a8 a5 a4 a5 a12 a5 a12 a10 a8 a1 a7 a3 a1 a10 a11 a2 a9 a8 a1 a7 a3 a9 a12 a5 a3 a7 a1 a1 a9 a8 a8 a11 a1 a1 a3 a8 a9 a10 a8 a5 a6 a7 a6 a5 a1 a2 a12 a11 a7 a10 a2 a12 a1 a2 a7 a10 a8 a11 a8 a8 a5 a5 a10 a6 a9 a2 a6 a5 a2 a12 a11 a8 a10 a10 a1 a10 a3 a5 a12 a12 a8 a11 a6 a4 a8 a8 a7 a8 a12 a5 a5 a11 a11 a10 a5 a6 a9 a7 a4 a8 a1 a1 a9 a11 a3 a5 a10 a3 a9 a11 a12 a10 a3 a7 a2 a2 a8 a6 a8 a8 a9 a12 a3 a7 a4 a10 a8 a11 a5 a1 a9 a8 a4 a9 a5 a2 a12 a9 a2 a2 a7 a12 a5 a3 a11 a10 a6 a7 a6 a3 a4 a8 a7 a9 a8 a2 a6 a12 a1 a10 a8 a8 a8 a1 a6 a9 a3 a10 a3 a12 a3 a4 a8 a2 a8 a8 a3 a2 a7 a12 a12 a7 a8 a6 a12 a10 a5 a8 a3 a8 a6 a8 a11 a8 a10 a9 a12 a3 a7 a3 a6 a3 a11 a2 a9 a6 a4 a8 a8 a8 a4 a7 a1 a9 a9 a8 a3 a6 a9 a10 a7 a6 a4 a6 a12 a1 a9 a5 a8 a10 a1 a1 a5 a5 a8 a6 a2 a1 a12 a7 a4 a2 a3 a11 a2 a3 a11 a6 a8 a1 a9 a5 a12 a5 a2 a5 a4 a4 a1 a5 a1 a5 a7  "1" a24 a13 a15 a15 a20 a23 a18 a19 a22 a24 a13 a13 a23 a23 a20 a18 a14 a21 a16 a16 a13 a17 a19 a22 a18 a15 a15 a18 a15 a14 a19 a20 a19 a15 a14 a21 a18 a22 a16 a15 a20 a20 a22 a17 a15 a13 a15 a13 a18 a20 a19 a17 a22 a17 a20 a13 a19 a21 a24 a20 a15 a18 a17 a20 a22 a14 a19 a20 a15 a19 a24 a15 a13 a21 a15 a16 a15 a23 a19 a17 a20 a19 a24 a21 a15 a20 a14 a16 a24 a17 a22 a23 a21 a21 a21 a19 a24 a18 a24 a16 a15 a17 a17 a23 a20 a23 a18 a19 a17 a22 a14 a21 a21 a15 a19 a17 a22 a22 a18 a20 a14 a14 a19 a14 a15 a13 a17 a16 a24 a20 a21 a22 a21 a13 a21 a13 a15 a19 a23 a17 a16 a21 a24 a22 a21 a14 a20 a21 a16 a18 a21 a21 a18 a17 a14 a24 a24 a18 a14 a19 a20 a24 a16 a20 a15 a23 a14 a18 a18 a21 a20 a22 a14 a17 a15 a15 a17 a17 a23 a16 a24 a19 a13 a21 a23 a22 a18 a16 a16 a22 a22 a21 a18 a22 a21 a14 a22 a13 a22 a16 a15 a19 a13 a15 a24 a22 a19 a18 a24 a22 a23 a23 a18 a24 a21 a16 a14 a14 a14 a22 a21 a16 a21 a14 a15 a18 a15 a20 a13 a24 a14 a23 a21 a18 a17 a24 a19 a19 a24 a21 a14 a14 a16 a18 a19 a18 a23 a13 a17 a17 a21 a16 a19 a16 a18 ) (str.++ a18 a22 a23 a22 a18 a24 a18 a17 a24 a21 a21 a17 a24 a22 a13 a24 a16 a20 a21 a13 a17 a19 a14 a15 a24 a21 a14 a24 a18 a18 a15 a17 a17 a22 a21 a24 a24 a20 a17 a20 a17 a17 a23 a20 a18 a14 a15 a14 a16 a16 a18 a20 a22 a14 a18 a17 a13 a17 a18 a22 a19 a20 a13 a13 a23 a23 a16 a22 a17 a23 a24 a14 a14 a21 a21 a23 a24 a22 a24 a22 a24 a23 a17 a18 a16 a13 a16 a14 a15 a13 a16 a23 a14 a22 a13 a19 a19 a14 a21 a15 a14 a15 a21 a15 a24 a24 a13 a20 a19 a16 a22 a22 a15 a21 a19 a23 a17 a13 a21 a14 a13 a23 a24 a19 a16 a17 a16 a22 a16 a18 a14 a21 a13 a17 a15 a21 a20 a24 a21 a20 a22 a14 a16 a14 a19 a13 a17 a22 a16 a15 a24 a18 a18 a18 a16 a17 a15 a24 a16 a13 a18 a13 a15 a21 a13 a21 a13 a24 a22 a22 a21 a15 a15 a18 a16 a18 a23 a21 a23 a14 a20 a21 a21 a18 a23 a19 a24 a13 a23 a21 a14 a18 a14 a17 a15 a21 a18 a16 a23 a18 a16 a15 a18 a21 a13 a20 a23 a15 a15 a16 a20 a16 a20 a16 a24 a24 a18 a24 a19 a16 a24 a24 a21 a15 a19 a20 a22 a15 a16 a18 a18 a13 a22 a24 a18 a21 a24 a19 a14 a24 a23 a23 a20 a21 a19 a16 a14 a13 a15 a21 a16 a14  "1")))
(check-sat)
(exit)
